106
150
120	6
119	11
118	8
117	9
116	14
115	3
114	9
113	8
112	12
111	10
110	13
109	8
108	10
107	12
106	11
105	13
104	9
103	2
102	20
101	10
100	10
99	6
98	8
97	8
96	5
95	7
94	6
93	13
92	10
91	7
90	11
89	8
88	17
87	11
86	13
85	12
84	6
83	7
82	6
81	8
80	9
79	13
78	8
77	11
76	5
75	8
74	6
73	13
72	11
71	10
70	5
69	9
68	13
67	8
66	12
65	5
64	4
63	17
62	9
61	6
60	9
59	4
58	8
57	14
56	9
55	7
54	7
53	7
52	7
51	8
50	11
49	16
48	8
47	5
46	8
45	9
44	16
43	9
42	15
41	12
40	10
39	11
38	7
37	12
36	14
35	10
34	7
33	9
32	6
31	7
30	5
29	8
28	10
27	12
26	7
25	7
24	13
23	16
22	8
21	8
20	7
19	8
18	12
17	14
16	13
15	11
